(declare-fun var0 () String)
(assert (str.in.re var0 (re.++ (re.+ (re.union (str.to.re "22") (str.to.re "3"))) (re.union (re.* (str.to.re "000")) (re.+ (str.to.re "111"))))))
(assert (<= 15 (str.len var0)))
(check-sat)